50
1 2
1 4
1 6
1 11
1 13
1 16
1 18
1 22
1 24
1 26
1 29
1 31
1 33
1 34
1 35
1 36
1 37
1 39
1 40
1 41
1 43
1 46
2 3
2 4
2 5
2 8
2 9
2 16
2 17
2 20
2 21
2 22
2 25
2 28
2 29
2 34
2 35
2 37
2 38
2 39
2 43
2 45
2 47
2 48
2 49
3 4
3 5
3 6
3 7
3 8
3 11
3 15
3 16
3 17
3 18
3 21
3 22
3 24
3 26
3 27
3 28
3 29
3 41
3 42
3 44
3 45
3 47
3 49
3 50
4 5
4 7
4 9
4 10
4 11
4 12
4 22
4 28
4 31
4 33
4 37
4 38
4 39
4 40
4 41
4 43
4 45
4 48
4 49
5 6
5 7
5 9
5 10
5 11
5 12
5 13
5 15
5 16
5 19
5 21
5 22
5 23
5 24
5 25
5 27
5 28
5 33
5 35
5 36
5 37
5 38
5 39
5 41
5 44
5 48
5 50
6 7
6 8
6 9
6 10
6 11
6 14
6 16
6 17
6 19
6 20
6 23
6 27
6 28
6 29
6 31
6 32
6 33
6 35
6 36
6 38
6 41
6 45
6 46
7 8
7 10
7 11
7 12
7 15
7 16
7 20
7 23
7 24
7 27
7 28
7 31
7 35
7 41
7 43
7 46
7 47
7 48
7 49
8 9
8 10
8 12
8 13
8 14
8 15
8 17
8 19
8 20
8 24
8 25
8 27
8 30
8 32
8 33
8 34
8 35
8 37
8 38
8 41
8 44
8 45
8 46
8 47
8 48
9 10
9 12
9 13
9 14
9 15
9 16
9 17
9 20
9 21
9 25
9 26
9 27
9 28
9 29
9 30
9 35
9 37
9 38
9 40
9 41
9 44
9 45
9 47
10 11
10 16
10 17
10 18
10 19
10 20
10 22
10 23
10 25
10 26
10 27
10 28
10 29
10 31
10 34
10 36
10 39
10 41
10 47
11 12
11 14
11 15
11 17
11 19
11 20
11 24
11 27
11 29
11 30
11 31
11 33
11 34
11 37
11 38
11 41
11 42
11 43
11 44
11 45
11 46
11 47
11 49
11 50
12 13
12 14
12 17
12 21
12 24
12 25
12 26
12 27
12 29
12 33
12 34
12 36
12 41
12 43
12 46
12 47
12 48
12 49
13 14
13 18
13 23
13 24
13 25
13 28
13 32
13 33
13 39
13 40
13 41
13 42
13 43
13 44
13 46
13 47
13 48
13 49
14 15
14 19
14 21
14 22
14 23
14 24
14 25
14 26
14 30
14 31
14 36
14 37
14 43
14 44
14 46
15 16
15 17
15 18
15 19
15 20
15 24
15 27
15 28
15 29
15 33
15 35
15 37
15 41
15 42
15 43
15 44
15 46
15 48
15 49
16 17
16 18
16 23
16 24
16 29
16 31
16 33
16 34
16 35
16 40
16 41
16 49
16 50
17 18
17 21
17 24
17 31
17 32
17 34
17 35
17 39
17 40
17 45
17 46
17 47
17 49
17 50
18 19
18 20
18 22
18 23
18 24
18 27
18 29
18 30
18 32
18 34
18 35
18 37
18 38
18 40
18 41
18 43
18 44
18 49
18 50
19 20
19 22
19 26
19 27
19 29
19 33
19 35
19 36
19 37
19 39
19 42
19 44
19 45
19 46
19 47
19 48
19 50
20 21
20 22
20 25
20 26
20 27
20 29
20 30
20 32
20 33
20 35
20 36
20 40
20 41
20 44
20 45
20 48
20 50
21 22
21 23
21 26
21 28
21 33
21 34
21 35
21 37
21 44
22 23
22 24
22 25
22 30
22 31
22 33
22 34
22 35
22 37
22 38
22 39
22 40
22 41
22 45
22 46
22 47
22 48
22 49
22 50
23 24
23 26
23 27
23 28
23 29
23 30
23 33
23 34
23 37
23 40
23 41
23 44
23 45
23 50
24 25
24 26
24 28
24 33
24 36
24 37
24 41
24 42
24 46
24 47
24 48
24 49
25 26
25 27
25 30
25 31
25 33
25 34
25 35
25 37
25 40
25 41
25 44
25 46
25 47
25 48
25 49
25 50
26 27
26 30
26 31
26 37
26 38
26 41
26 45
26 46
26 47
26 48
26 50
27 28
27 29
27 33
27 34
27 35
27 36
27 37
27 38
27 39
27 42
27 45
27 47
27 48
27 49
28 29
28 31
28 32
28 34
28 35
28 36
28 37
28 39
28 40
28 45
28 46
28 47
28 48
28 49
29 30
29 32
29 33
29 36
29 37
29 39
29 43
29 44
29 45
29 46
29 47
29 49
29 50
30 31
30 32
30 34
30 36
30 38
30 39
30 40
30 42
30 44
30 46
30 48
30 49
30 50
31 32
31 33
31 34
31 37
31 38
31 39
31 40
31 47
31 49
32 33
32 34
32 35
32 36
32 41
32 42
32 43
32 44
32 45
32 46
32 47
32 48
33 34
33 35
33 36
33 37
33 39
33 42
33 44
33 46
33 47
33 50
34 35
34 36
34 37
34 38
34 39
34 40
34 47
35 36
35 45
35 46
36 37
36 40
36 41
36 42
36 43
36 44
36 47
36 49
36 50
37 38
37 39
37 41
37 43
37 44
37 46
38 39
38 45
38 48
38 49
39 40
39 42
39 44
39 45
39 46
39 47
40 41
40 42
40 43
40 45
41 42
42 43
43 44
44 45
45 46
46 47
47 48
48 49
49 50
